projet_m2_wvcp/projet_m2_wvcp/original_wvcp_dzn/r13.clq.dzn
cliques=[{8,5,10,11,3,6,9,0,2,1,7,4},{8,5,10,11,3,6,9,0,2,1,7,4},{8,5,10,11,3,6,9,0,2,1,7,4},{186,25,48,35,3,88,115,207,73,16,101,195,150,126},{8,5,10,11,3,6,9,0,2,1,7,4},{166,5,210,76,176,28,140,62,118,50,91,199,37,152},{8,5,10,11,3,6,9,0,2,1,7,4},{8,5,10,11,3,6,9,0,2,1,7,4},{8,5,10,11,3,6,9,0,2,1,7,4},{8,5,10,11,3,6,9,0,2,1,7,4},{54,41,94,10,157,108,180,82,215,133,143,33,67,192},{8,5,10,11,3,6,9,0,2,1,7,4},{56,193,22,135,110,145,169,121,95,12,182,84,34,43},{146,136,203,111,13,85,183,0,96,122,159,44,69},{112,170,45,147,137,14,97,86,70,204,160},{47,206,59,125,100,15,163,138,149,72},{186,25,48,35,3,88,115,207,73,16,101,195,150,126},{209,188,61,164,103,90,197,116,17,36,174,128},{51,6,211,18,105,130,77,177,141,29,38,119,153},{65,190,40,31,19,201,9,53,213,179,80},{120,202,214,93,107,142,66,20,32,81,156,191},{42,11,216,83,181,21,144,55,168,134,68,109,158},{56,193,22,135,110,145,169,121,95,12,182,84,34,43},{113,148,98,46,57,23,171,87,1,123,161,184},{25,22,28,31,23,30,32,26,24,29,33,27},{186,25,48,35,3,88,115,207,73,16,101,195,150,126},{187,49,102,89,60,196,208,26,173,74,4,127},{25,22,28,31,23,30,32,26,24,29,33,27},{166,5,210,76,176,28,140,62,118,50,91,199,37,152},{51,6,211,18,105,130,77,177,141,29,38,119,153},{25,22,28,31,23,30,32,26,24,29,33,27},{65,190,40,31,19,201,9,53,213,179,80},{120,202,214,93,107,142,66,20,32,81,156,191},{54,41,94,10,157,108,180,82,215,133,143,33,67,192},{56,193,22,135,110,145,169,121,95,12,182,84,34,43},{186,25,48,35,3,88,115,207,73,16,101,195,150,126},{209,188,61,164,103,90,197,116,17,36,174,128},{166,5,210,76,176,28,140,62,118,50,91,199,37,152},{51,6,211,18,105,130,77,177,141,29,38,119,153},{212,8,178,79,30,132,39,167,155,189,64},{65,190,40,31,19,201,9,53,213,179,80},{54,41,94,10,157,108,180,82,215,133,143,33,67,192},{42,11,216,83,181,21,144,55,168,134,68,109,158},{56,193,22,135,110,145,169,121,95,12,182,84,34,43},{48,49,54,51,47,45,46,50,53,52,55,44,43},{48,49,54,51,47,45,46,50,53,52,55,44,43},{48,49,54,51,47,45,46,50,53,52,55,44,43},{48,49,54,51,47,45,46,50,53,52,55,44,43},{186,25,48,35,3,88,115,207,73,16,101,195,150,126},{48,49,54,51,47,45,46,50,53,52,55,44,43},{166,5,210,76,176,28,140,62,118,50,91,199,37,152},{48,49,54,51,47,45,46,50,53,52,55,44,43},{48,49,54,51,47,45,46,50,53,52,55,44,43},{48,49,54,51,47,45,46,50,53,52,55,44,43},{48,49,54,51,47,45,46,50,53,52,55,44,43},{48,49,54,51,47,45,46,50,53,52,55,44,43},{56,193,22,135,110,145,169,121,95,12,182,84,34,43},{56,65,59,62,60,61,57,66,63,58,64,68,67},{56,65,59,62,60,61,57,66,63,58,64,68,67},{56,65,59,62,60,61,57,66,63,58,64,68,67},{56,65,59,62,60,61,57,66,63,58,64,68,67},{56,65,59,62,60,61,57,66,63,58,64,68,67},{166,5,210,76,176,28,140,62,118,50,91,199,37,152},{56,65,59,62,60,61,57,66,63,58,64,68,67},{56,65,59,62,60,61,57,66,63,58,64,68,67},{56,65,59,62,60,61,57,66,63,58,64,68,67},{56,65,59,62,60,61,57,66,63,58,64,68,67},{54,41,94,10,157,108,180,82,215,133,143,33,67,192},{56,65,59,62,60,61,57,66,63,58,64,68,67},{76,79,71,83,75,77,82,81,73,78,80,70,74,69,72},{76,79,71,83,75,77,82,81,73,78,80,70,74,69,72},{76,79,71,83,75,77,82,81,73,78,80,70,74,69,72},{76,79,71,83,75,77,82,81,73,78,80,70,74,69,72},{186,25,48,35,3,88,115,207,73,16,101,195,150,126},{76,79,71,83,75,77,82,81,73,78,80,70,74,69,72},{76,79,71,83,75,77,82,81,73,78,80,70,74,69,72},{166,5,210,76,176,28,140,62,118,50,91,199,37,152},{76,79,71,83,75,77,82,81,73,78,80,70,74,69,72},{76,79,71,83,75,77,82,81,73,78,80,70,74,69,72},{76,79,71,83,75,77,82,81,73,78,80,70,74,69,72},{76,79,71,83,75,77,82,81,73,78,80,70,74,69,72},{120,202,214,93,107,142,66,20,32,81,156,191},{54,41,94,10,157,108,180,82,215,133,143,33,67,192},{76,79,71,83,75,77,82,81,73,78,80,70,74,69,72},{56,193,22,135,110,145,169,121,95,12,182,84,34,43},{146,136,203,111,13,85,183,0,96,122,159,44,69},{94,89,88,93,90,91,84,85,87,86,92},{113,148,98,46,57,23,171,87,1,123,161,184},{186,25,48,35,3,88,115,207,73,16,101,195,150,126},{187,49,102,89,60,196,208,26,173,74,4,127},{209,188,61,164,103,90,197,116,17,36,174,128},{166,5,210,76,176,28,140,62,118,50,91,199,37,152},{94,89,88,93,90,91,84,85,87,86,92},{120,202,214,93,107,142,66,20,32,81,156,191},{54,41,94,10,157,108,180,82,215,133,143,33,67,192},{56,193,22,135,110,145,169,121,95,12,182,84,34,43},{106,98,102,100,105,107,103,108,95,97,96,104,101,99,109},{106,98,102,100,105,107,103,108,95,97,96,104,101,99,109},{106,98,102,100,105,107,103,108,95,97,96,104,101,99,109},{106,98,102,100,105,107,103,108,95,97,96,104,101,99,109},{106,98,102,100,105,107,103,108,95,97,96,104,101,99,109},{106,98,102,100,105,107,103,108,95,97,96,104,101,99,109},{106,98,102,100,105,107,103,108,95,97,96,104,101,99,109},{106,98,102,100,105,107,103,108,95,97,96,104,101,99,109},{106,98,102,100,105,107,103,108,95,97,96,104,101,99,109},{106,98,102,100,105,107,103,108,95,97,96,104,101,99,109},{106,98,102,100,105,107,103,108,95,97,96,104,101,99,109},{106,98,102,100,105,107,103,108,95,97,96,104,101,99,109},{106,98,102,100,105,107,103,108,95,97,96,104,101,99,109},{106,98,102,100,105,107,103,108,95,97,96,104,101,99,109},{56,193,22,135,110,145,169,121,95,12,182,84,34,43},{113,120,114,110,112,118,115,111,117,116,119},{113,120,114,110,112,118,115,111,117,116,119},{113,120,114,110,112,118,115,111,117,116,119},{113,120,114,110,112,118,115,111,117,116,119},{186,25,48,35,3,88,115,207,73,16,101,195,150,126},{113,120,114,110,112,118,115,111,117,116,119},{113,120,114,110,112,118,115,111,117,116,119},{166,5,210,76,176,28,140,62,118,50,91,199,37,152},{113,120,114,110,112,118,115,111,117,116,119},{120,202,214,93,107,142,66,20,32,81,156,191},{56,193,22,135,110,145,169,121,95,12,182,84,34,43},{146,136,203,111,13,85,183,0,96,122,159,44,69},{113,148,98,46,57,23,171,87,1,123,161,184},{125,130,121,132,131,122,129,134,133,128,124,123,126,127},{47,206,59,125,100,15,163,138,149,72},{186,25,48,35,3,88,115,207,73,16,101,195,150,126},{187,49,102,89,60,196,208,26,173,74,4,127},{209,188,61,164,103,90,197,116,17,36,174,128},{125,130,121,132,131,122,129,134,133,128,124,123,126,127},{51,6,211,18,105,130,77,177,141,29,38,119,153},{125,130,121,132,131,122,129,134,133,128,124,123,126,127},{212,8,178,79,30,132,39,167,155,189,64},{54,41,94,10,157,108,180,82,215,133,143,33,67,192},{42,11,216,83,181,21,144,55,168,134,68,109,158},{56,193,22,135,110,145,169,121,95,12,182,84,34,43},{146,136,203,111,13,85,183,0,96,122,159,44,69},{135,136,140,142,137,138,139,144,141,143},{47,206,59,125,100,15,163,138,149,72},{135,136,140,142,137,138,139,144,141,143},{166,5,210,76,176,28,140,62,118,50,91,199,37,152},{51,6,211,18,105,130,77,177,141,29,38,119,153},{120,202,214,93,107,142,66,20,32,81,156,191},{54,41,94,10,157,108,180,82,215,133,143,33,67,192},{42,11,216,83,181,21,144,55,168,134,68,109,158},{56,193,22,135,110,145,169,121,95,12,182,84,34,43},{148,146,145,157,147,149,155,154,156,152,150,151,153,158},{148,146,145,157,147,149,155,154,156,152,150,151,153,158},{148,146,145,157,147,149,155,154,156,152,150,151,153,158},{148,146,145,157,147,149,155,154,156,152,150,151,153,158},{186,25,48,35,3,88,115,207,73,16,101,195,150,126},{148,146,145,157,147,149,155,154,156,152,150,151,153,158},{166,5,210,76,176,28,140,62,118,50,91,199,37,152},{148,146,145,157,147,149,155,154,156,152,150,151,153,158},{148,146,145,157,147,149,155,154,156,152,150,151,153,158},{148,146,145,157,147,149,155,154,156,152,150,151,153,158},{120,202,214,93,107,142,66,20,32,81,156,191},{54,41,94,10,157,108,180,82,215,133,143,33,67,192},{148,146,145,157,147,149,155,154,156,152,150,151,153,158},{146,136,203,111,13,85,183,0,96,122,159,44,69},{112,170,45,147,137,14,97,86,70,204,160},{113,148,98,46,57,23,171,87,1,123,161,184},{114,71,194,205,162,24,2,185,58,99,172,124},{47,206,59,125,100,15,163,138,149,72},{209,188,61,164,103,90,197,116,17,36,174,128},{166,164,163,165,162,168,167,159,161,160},{166,5,210,76,176,28,140,62,118,50,91,199,37,152},{212,8,178,79,30,132,39,167,155,189,64},{42,11,216,83,181,21,144,55,168,134,68,109,158},{56,193,22,135,110,145,169,121,95,12,182,84,34,43},{178,176,170,169,181,180,171,177,175,179,173,174,172},{178,176,170,169,181,180,171,177,175,179,173,174,172},{178,176,170,169,181,180,171,177,175,179,173,174,172},{187,49,102,89,60,196,208,26,173,74,4,127},{178,176,170,169,181,180,171,177,175,179,173,174,172},{178,176,170,169,181,180,171,177,175,179,173,174,172},{166,5,210,76,176,28,140,62,118,50,91,199,37,152},{178,176,170,169,181,180,171,177,175,179,173,174,172},{178,176,170,169,181,180,171,177,175,179,173,174,172},{65,190,40,31,19,201,9,53,213,179,80},{54,41,94,10,157,108,180,82,215,133,143,33,67,192},{178,176,170,169,181,180,171,177,175,179,173,174,172},{56,193,22,135,110,145,169,121,95,12,182,84,34,43},{146,136,203,111,13,85,183,0,96,122,159,44,69},{113,148,98,46,57,23,171,87,1,123,161,184},{187,186,190,188,182,183,185,189,191,184,192},{186,25,48,35,3,88,115,207,73,16,101,195,150,126},{187,49,102,89,60,196,208,26,173,74,4,127},{209,188,61,164,103,90,197,116,17,36,174,128},{212,8,178,79,30,132,39,167,155,189,64},{65,190,40,31,19,201,9,53,213,179,80},{120,202,214,93,107,142,66,20,32,81,156,191},{54,41,94,10,157,108,180,82,215,133,143,33,67,192},{56,193,22,135,110,145,169,121,95,12,182,84,34,43},{202,193,198,201,196,200,194,197,199,195},{186,25,48,35,3,88,115,207,73,16,101,195,150,126},{187,49,102,89,60,196,208,26,173,74,4,127},{209,188,61,164,103,90,197,116,17,36,174,128},{202,193,198,201,196,200,194,197,199,195},{166,5,210,76,176,28,140,62,118,50,91,199,37,152},{202,193,198,201,196,200,194,197,199,195},{65,190,40,31,19,201,9,53,213,179,80},{120,202,214,93,107,142,66,20,32,81,156,191},{212,209,214,206,210,211,216,203,207,208,205,213,215,204},{212,209,214,206,210,211,216,203,207,208,205,213,215,204},{212,209,214,206,210,211,216,203,207,208,205,213,215,204},{212,209,214,206,210,211,216,203,207,208,205,213,215,204},{212,209,214,206,210,211,216,203,207,208,205,213,215,204},{212,209,214,206,210,211,216,203,207,208,205,213,215,204},{212,209,214,206,210,211,216,203,207,208,205,213,215,204},{212,209,214,206,210,211,216,203,207,208,205,213,215,204},{212,209,214,206,210,211,216,203,207,208,205,213,215,204},{212,209,214,206,210,211,216,203,207,208,205,213,215,204},{212,209,214,206,210,211,216,203,207,208,205,213,215,204},{212,209,214,206,210,211,216,203,207,208,205,213,215,204},{212,209,214,206,210,211,216,203,207,208,205,213,215,204},{212,209,214,206,210,211,216,203,207,208,205,213,215,204}];
nr_cliques=217;
