projet_m2_wvcp/projet_m2_wvcp/original_wvcp_dzn/r13.dzn
name="r13";
nr_vertices=217;
nr_edges=2449;
neighborhoods=[{1,2,3,4,5,6,7,8,9,10,11,13,44,69,85,96,111,122,136,146,159,183,203},{0,2,3,4,5,6,7,8,9,10,11,23,46,57,87,98,113,123,148,161,171,184},{0,1,3,4,5,6,7,8,9,10,11,24,58,71,99,114,124,162,172,185,194,205},{0,1,2,4,5,6,7,8,9,10,11,16,25,35,48,73,88,101,115,126,150,186,195,207},{0,1,2,3,5,6,7,8,9,10,11,26,49,60,74,89,102,127,173,187,196,208},{0,1,2,3,4,6,7,8,9,10,11,28,37,50,62,76,91,118,140,152,166,176,199,210},{0,1,2,3,4,5,7,8,9,10,11,18,29,38,51,77,105,119,130,141,153,177,211},{0,1,2,3,4,5,6,8,9,10,11,52,63,78,92,106,131,154,200},{0,1,2,3,4,5,6,7,9,10,11,30,39,64,79,132,155,167,178,189,212},{0,1,2,3,4,5,6,7,8,10,11,19,31,40,53,65,80,179,190,201,213},{0,1,2,3,4,5,6,7,8,9,11,33,41,54,67,82,94,108,133,143,157,180,192,215},{0,1,2,3,4,5,6,7,8,9,10,21,42,55,68,83,109,134,144,158,168,181,216},{13,14,15,16,17,18,19,20,21,22,34,43,56,84,95,110,121,135,145,169,182,193},{0,12,14,15,16,17,18,19,20,21,44,69,85,96,111,122,136,146,159,183,203},{12,13,15,16,17,18,19,20,21,45,70,86,97,112,137,147,160,170,204},{12,13,14,16,17,18,19,20,21,47,59,72,100,125,138,149,163,206},{3,12,13,14,15,17,18,19,20,21,25,35,48,73,88,101,115,126,150,186,195,207},{12,13,14,15,16,18,19,20,21,36,61,90,103,116,128,164,174,188,197,209},{6,12,13,14,15,16,17,19,20,21,29,38,51,77,105,119,130,141,153,177,211},{9,12,13,14,15,16,17,18,20,21,31,40,53,65,80,179,190,201,213},{12,13,14,15,16,17,18,19,21,32,66,81,93,107,120,142,156,191,202,214},{11,12,13,14,15,16,17,18,19,20,42,55,68,83,109,134,144,158,168,181,216},{12,23,24,25,26,27,28,29,30,31,32,33,34,43,56,84,95,110,121,135,145,169,182,193},{1,22,24,25,26,27,28,29,30,31,32,33,46,57,87,98,113,123,148,161,171,184},{2,22,23,25,26,27,28,29,30,31,32,33,58,71,99,114,124,162,172,185,194,205},{3,16,22,23,24,26,27,28,29,30,31,32,33,35,48,73,88,101,115,126,150,186,195,207},{4,22,23,24,25,27,28,29,30,31,32,33,49,60,74,89,102,127,173,187,196,208},{22,23,24,25,26,28,29,30,31,32,33,75,104,117,129,139,151,165,175,198},{5,22,23,24,25,26,27,29,30,31,32,33,37,50,62,76,91,118,140,152,166,176,199,210},{6,18,22,23,24,25,26,27,28,30,31,32,33,38,51,77,105,119,130,141,153,177,211},{8,22,23,24,25,26,27,28,29,31,32,33,39,64,79,132,155,167,178,189,212},{9,19,22,23,24,25,26,27,28,29,30,32,33,40,53,65,80,179,190,201,213},{20,22,23,24,25,26,27,28,29,30,31,33,66,81,93,107,120,142,156,191,202,214},{10,22,23,24,25,26,27,28,29,30,31,32,41,54,67,82,94,108,133,143,157,180,192,215},{12,22,35,36,37,38,39,40,41,42,43,56,84,95,110,121,135,145,169,182,193},{3,16,25,34,36,37,38,39,40,41,42,48,73,88,101,115,126,150,186,195,207},{17,34,35,37,38,39,40,41,42,61,90,103,116,128,164,174,188,197,209},{5,28,34,35,36,38,39,40,41,42,50,62,76,91,118,140,152,166,176,199,210},{6,18,29,34,35,36,37,39,40,41,42,51,77,105,119,130,141,153,177,211},{8,30,34,35,36,37,38,40,41,42,64,79,132,155,167,178,189,212},{9,19,31,34,35,36,37,38,39,41,42,53,65,80,179,190,201,213},{10,33,34,35,36,37,38,39,40,42,54,67,82,94,108,133,143,157,180,192,215},{11,21,34,35,36,37,38,39,40,41,55,68,83,109,134,144,158,168,181,216},{12,22,34,44,45,46,47,48,49,50,51,52,53,54,55,56,84,95,110,121,135,145,169,182,193},{0,13,43,45,46,47,48,49,50,51,52,53,54,55,69,85,96,111,122,136,146,159,183,203},{14,43,44,46,47,48,49,50,51,52,53,54,55,70,86,97,112,137,147,160,170,204},{1,23,43,44,45,47,48,49,50,51,52,53,54,55,57,87,98,113,123,148,161,171,184},{15,43,44,45,46,48,49,50,51,52,53,54,55,59,72,100,125,138,149,163,206},{3,16,25,35,43,44,45,46,47,49,50,51,52,53,54,55,73,88,101,115,126,150,186,195,207},{4,26,43,44,45,46,47,48,50,51,52,53,54,55,60,74,89,102,127,173,187,196,208},{5,28,37,43,44,45,46,47,48,49,51,52,53,54,55,62,76,91,118,140,152,166,176,199,210},{6,18,29,38,43,44,45,46,47,48,49,50,52,53,54,55,77,105,119,130,141,153,177,211},{7,43,44,45,46,47,48,49,50,51,53,54,55,63,78,92,106,131,154,200},{9,19,31,40,43,44,45,46,47,48,49,50,51,52,54,55,65,80,179,190,201,213},{10,33,41,43,44,45,46,47,48,49,50,51,52,53,55,67,82,94,108,133,143,157,180,192,215},{11,21,42,43,44,45,46,47,48,49,50,51,52,53,54,68,83,109,134,144,158,168,181,216},{12,22,34,43,57,58,59,60,61,62,63,64,65,66,67,68,84,95,110,121,135,145,169,182,193},{1,23,46,56,58,59,60,61,62,63,64,65,66,67,68,87,98,113,123,148,161,171,184},{2,24,56,57,59,60,61,62,63,64,65,66,67,68,71,99,114,124,162,172,185,194,205},{15,47,56,57,58,60,61,62,63,64,65,66,67,68,72,100,125,138,149,163,206},{4,26,49,56,57,58,59,61,62,63,64,65,66,67,68,74,89,102,127,173,187,196,208},{17,36,56,57,58,59,60,62,63,64,65,66,67,68,90,103,116,128,164,174,188,197,209},{5,28,37,50,56,57,58,59,60,61,63,64,65,66,67,68,76,91,118,140,152,166,176,199,210},{7,52,56,57,58,59,60,61,62,64,65,66,67,68,78,92,106,131,154,200},{8,30,39,56,57,58,59,60,61,62,63,65,66,67,68,79,132,155,167,178,189,212},{9,19,31,40,53,56,57,58,59,60,61,62,63,64,66,67,68,80,179,190,201,213},{20,32,56,57,58,59,60,61,62,63,64,65,67,68,81,93,107,120,142,156,191,202,214},{10,33,41,54,56,57,58,59,60,61,62,63,64,65,66,68,82,94,108,133,143,157,180,192,215},{11,21,42,55,56,57,58,59,60,61,62,63,64,65,66,67,83,109,134,144,158,168,181,216},{0,13,44,70,71,72,73,74,75,76,77,78,79,80,81,82,83,85,96,111,122,136,146,159,183,203},{14,45,69,71,72,73,74,75,76,77,78,79,80,81,82,83,86,97,112,137,147,160,170,204},{2,24,58,69,70,72,73,74,75,76,77,78,79,80,81,82,83,99,114,124,162,172,185,194,205},{15,47,59,69,70,71,73,74,75,76,77,78,79,80,81,82,83,100,125,138,149,163,206},{3,16,25,35,48,69,70,71,72,74,75,76,77,78,79,80,81,82,83,88,101,115,126,150,186,195,207},{4,26,49,60,69,70,71,72,73,75,76,77,78,79,80,81,82,83,89,102,127,173,187,196,208},{27,69,70,71,72,73,74,76,77,78,79,80,81,82,83,104,117,129,139,151,165,175,198},{5,28,37,50,62,69,70,71,72,73,74,75,77,78,79,80,81,82,83,91,118,140,152,166,176,199,210},{6,18,29,38,51,69,70,71,72,73,74,75,76,78,79,80,81,82,83,105,119,130,141,153,177,211},{7,52,63,69,70,71,72,73,74,75,76,77,79,80,81,82,83,92,106,131,154,200},{8,30,39,64,69,70,71,72,73,74,75,76,77,78,80,81,82,83,132,155,167,178,189,212},{9,19,31,40,53,65,69,70,71,72,73,74,75,76,77,78,79,81,82,83,179,190,201,213},{20,32,66,69,70,71,72,73,74,75,76,77,78,79,80,82,83,93,107,120,142,156,191,202,214},{10,33,41,54,67,69,70,71,72,73,74,75,76,77,78,79,80,81,83,94,108,133,143,157,180,192,215},{11,21,42,55,68,69,70,71,72,73,74,75,76,77,78,79,80,81,82,109,134,144,158,168,181,216},{12,22,34,43,56,85,86,87,88,89,90,91,92,93,94,95,110,121,135,145,169,182,193},{0,13,44,69,84,86,87,88,89,90,91,92,93,94,96,111,122,136,146,159,183,203},{14,45,70,84,85,87,88,89,90,91,92,93,94,97,112,137,147,160,170,204},{1,23,46,57,84,85,86,88,89,90,91,92,93,94,98,113,123,148,161,171,184},{3,16,25,35,48,73,84,85,86,87,89,90,91,92,93,94,101,115,126,150,186,195,207},{4,26,49,60,74,84,85,86,87,88,90,91,92,93,94,102,127,173,187,196,208},{17,36,61,84,85,86,87,88,89,91,92,93,94,103,116,128,164,174,188,197,209},{5,28,37,50,62,76,84,85,86,87,88,89,90,92,93,94,118,140,152,166,176,199,210},{7,52,63,78,84,85,86,87,88,89,90,91,93,94,106,131,154,200},{20,32,66,81,84,85,86,87,88,89,90,91,92,94,107,120,142,156,191,202,214},{10,33,41,54,67,82,84,85,86,87,88,89,90,91,92,93,108,133,143,157,180,192,215},{12,22,34,43,56,84,96,97,98,99,100,101,102,103,104,105,106,107,108,109,110,121,135,145,169,182,193},{0,13,44,69,85,95,97,98,99,100,101,102,103,104,105,106,107,108,109,111,122,136,146,159,183,203},{14,45,70,86,95,96,98,99,100,101,102,103,104,105,106,107,108,109,112,137,147,160,170,204},{1,23,46,57,87,95,96,97,99,100,101,102,103,104,105,106,107,108,109,113,123,148,161,171,184},{2,24,58,71,95,96,97,98,100,101,102,103,104,105,106,107,108,109,114,124,162,172,185,194,205},{15,47,59,72,95,96,97,98,99,101,102,103,104,105,106,107,108,109,125,138,149,163,206},{3,16,25,35,48,73,88,95,96,97,98,99,100,102,103,104,105,106,107,108,109,115,126,150,186,195,207},{4,26,49,60,74,89,95,96,97,98,99,100,101,103,104,105,106,107,108,109,127,173,187,196,208},{17,36,61,90,95,96,97,98,99,100,101,102,104,105,106,107,108,109,116,128,164,174,188,197,209},{27,75,95,96,97,98,99,100,101,102,103,105,106,107,108,109,117,129,139,151,165,175,198},{6,18,29,38,51,77,95,96,97,98,99,100,101,102,103,104,106,107,108,109,119,130,141,153,177,211},{7,52,63,78,92,95,96,97,98,99,100,101,102,103,104,105,107,108,109,131,154,200},{20,32,66,81,93,95,96,97,98,99,100,101,102,103,104,105,106,108,109,120,142,156,191,202,214},{10,33,41,54,67,82,94,95,96,97,98,99,100,101,102,103,104,105,106,107,109,133,143,157,180,192,215},{11,21,42,55,68,83,95,96,97,98,99,100,101,102,103,104,105,106,107,108,134,144,158,168,181,216},{12,22,34,43,56,84,95,111,112,113,114,115,116,117,118,119,120,121,135,145,169,182,193},{0,13,44,69,85,96,110,112,113,114,115,116,117,118,119,120,122,136,146,159,183,203},{14,45,70,86,97,110,111,113,114,115,116,117,118,119,120,137,147,160,170,204},{1,23,46,57,87,98,110,111,112,114,115,116,117,118,119,120,123,148,161,171,184},{2,24,58,71,99,110,111,112,113,115,116,117,118,119,120,124,162,172,185,194,205},{3,16,25,35,48,73,88,101,110,111,112,113,114,116,117,118,119,120,126,150,186,195,207},{17,36,61,90,103,110,111,112,113,114,115,117,118,119,120,128,164,174,188,197,209},{27,75,104,110,111,112,113,114,115,116,118,119,120,129,139,151,165,175,198},{5,28,37,50,62,76,91,110,111,112,113,114,115,116,117,119,120,140,152,166,176,199,210},{6,18,29,38,51,77,105,110,111,112,113,114,115,116,117,118,120,130,141,153,177,211},{20,32,66,81,93,107,110,111,112,113,114,115,116,117,118,119,142,156,191,202,214},{12,22,34,43,56,84,95,110,122,123,124,125,126,127,128,129,130,131,132,133,134,135,145,169,182,193},{0,13,44,69,85,96,111,121,123,124,125,126,127,128,129,130,131,132,133,134,136,146,159,183,203},{1,23,46,57,87,98,113,121,122,124,125,126,127,128,129,130,131,132,133,134,148,161,171,184},{2,24,58,71,99,114,121,122,123,125,126,127,128,129,130,131,132,133,134,162,172,185,194,205},{15,47,59,72,100,121,122,123,124,126,127,128,129,130,131,132,133,134,138,149,163,206},{3,16,25,35,48,73,88,101,115,121,122,123,124,125,127,128,129,130,131,132,133,134,150,186,195,207},{4,26,49,60,74,89,102,121,122,123,124,125,126,128,129,130,131,132,133,134,173,187,196,208},{17,36,61,90,103,116,121,122,123,124,125,126,127,129,130,131,132,133,134,164,174,188,197,209},{27,75,104,117,121,122,123,124,125,126,127,128,130,131,132,133,134,139,151,165,175,198},{6,18,29,38,51,77,105,119,121,122,123,124,125,126,127,128,129,131,132,133,134,141,153,177,211},{7,52,63,78,92,106,121,122,123,124,125,126,127,128,129,130,132,133,134,154,200},{8,30,39,64,79,121,122,123,124,125,126,127,128,129,130,131,133,134,155,167,178,189,212},{10,33,41,54,67,82,94,108,121,122,123,124,125,126,127,128,129,130,131,132,134,143,157,180,192,215},{11,21,42,55,68,83,109,121,122,123,124,125,126,127,128,129,130,131,132,133,144,158,168,181,216},{12,22,34,43,56,84,95,110,121,136,137,138,139,140,141,142,143,144,145,169,182,193},{0,13,44,69,85,96,111,122,135,137,138,139,140,141,142,143,144,146,159,183,203},{14,45,70,86,97,112,135,136,138,139,140,141,142,143,144,147,160,170,204},{15,47,59,72,100,125,135,136,137,139,140,141,142,143,144,149,163,206},{27,75,104,117,129,135,136,137,138,140,141,142,143,144,151,165,175,198},{5,28,37,50,62,76,91,118,135,136,137,138,139,141,142,143,144,152,166,176,199,210},{6,18,29,38,51,77,105,119,130,135,136,137,138,139,140,142,143,144,153,177,211},{20,32,66,81,93,107,120,135,136,137,138,139,140,141,143,144,156,191,202,214},{10,33,41,54,67,82,94,108,133,135,136,137,138,139,140,141,142,144,157,180,192,215},{11,21,42,55,68,83,109,134,135,136,137,138,139,140,141,142,143,158,168,181,216},{12,22,34,43,56,84,95,110,121,135,146,147,148,149,150,151,152,153,154,155,156,157,158,169,182,193},{0,13,44,69,85,96,111,122,136,145,147,148,149,150,151,152,153,154,155,156,157,158,159,183,203},{14,45,70,86,97,112,137,145,146,148,149,150,151,152,153,154,155,156,157,158,160,170,204},{1,23,46,57,87,98,113,123,145,146,147,149,150,151,152,153,154,155,156,157,158,161,171,184},{15,47,59,72,100,125,138,145,146,147,148,150,151,152,153,154,155,156,157,158,163,206},{3,16,25,35,48,73,88,101,115,126,145,146,147,148,149,151,152,153,154,155,156,157,158,186,195,207},{27,75,104,117,129,139,145,146,147,148,149,150,152,153,154,155,156,157,158,165,175,198},{5,28,37,50,62,76,91,118,140,145,146,147,148,149,150,151,153,154,155,156,157,158,166,176,199,210},{6,18,29,38,51,77,105,119,130,141,145,146,147,148,149,150,151,152,154,155,156,157,158,177,211},{7,52,63,78,92,106,131,145,146,147,148,149,150,151,152,153,155,156,157,158,200},{8,30,39,64,79,132,145,146,147,148,149,150,151,152,153,154,156,157,158,167,178,189,212},{20,32,66,81,93,107,120,142,145,146,147,148,149,150,151,152,153,154,155,157,158,191,202,214},{10,33,41,54,67,82,94,108,133,143,145,146,147,148,149,150,151,152,153,154,155,156,158,180,192,215},{11,21,42,55,68,83,109,134,144,145,146,147,148,149,150,151,152,153,154,155,156,157,168,181,216},{0,13,44,69,85,96,111,122,136,146,160,161,162,163,164,165,166,167,168,183,203},{14,45,70,86,97,112,137,147,159,161,162,163,164,165,166,167,168,170,204},{1,23,46,57,87,98,113,123,148,159,160,162,163,164,165,166,167,168,171,184},{2,24,58,71,99,114,124,159,160,161,163,164,165,166,167,168,172,185,194,205},{15,47,59,72,100,125,138,149,159,160,161,162,164,165,166,167,168,206},{17,36,61,90,103,116,128,159,160,161,162,163,165,166,167,168,174,188,197,209},{27,75,104,117,129,139,151,159,160,161,162,163,164,166,167,168,175,198},{5,28,37,50,62,76,91,118,140,152,159,160,161,162,163,164,165,167,168,176,199,210},{8,30,39,64,79,132,155,159,160,161,162,163,164,165,166,168,178,189,212},{11,21,42,55,68,83,109,134,144,158,159,160,161,162,163,164,165,166,167,181,216},{12,22,34,43,56,84,95,110,121,135,145,170,171,172,173,174,175,176,177,178,179,180,181,182,193},{14,45,70,86,97,112,137,147,160,169,171,172,173,174,175,176,177,178,179,180,181,204},{1,23,46,57,87,98,113,123,148,161,169,170,172,173,174,175,176,177,178,179,180,181,184},{2,24,58,71,99,114,124,162,169,170,171,173,174,175,176,177,178,179,180,181,185,194,205},{4,26,49,60,74,89,102,127,169,170,171,172,174,175,176,177,178,179,180,181,187,196,208},{17,36,61,90,103,116,128,164,169,170,171,172,173,175,176,177,178,179,180,181,188,197,209},{27,75,104,117,129,139,151,165,169,170,171,172,173,174,176,177,178,179,180,181,198},{5,28,37,50,62,76,91,118,140,152,166,169,170,171,172,173,174,175,177,178,179,180,181,199,210},{6,18,29,38,51,77,105,119,130,141,153,169,170,171,172,173,174,175,176,178,179,180,181,211},{8,30,39,64,79,132,155,167,169,170,171,172,173,174,175,176,177,179,180,181,189,212},{9,19,31,40,53,65,80,169,170,171,172,173,174,175,176,177,178,180,181,190,201,213},{10,33,41,54,67,82,94,108,133,143,157,169,170,171,172,173,174,175,176,177,178,179,181,192,215},{11,21,42,55,68,83,109,134,144,158,168,169,170,171,172,173,174,175,176,177,178,179,180,216},{12,22,34,43,56,84,95,110,121,135,145,169,183,184,185,186,187,188,189,190,191,192,193},{0,13,44,69,85,96,111,122,136,146,159,182,184,185,186,187,188,189,190,191,192,203},{1,23,46,57,87,98,113,123,148,161,171,182,183,185,186,187,188,189,190,191,192},{2,24,58,71,99,114,124,162,172,182,183,184,186,187,188,189,190,191,192,194,205},{3,16,25,35,48,73,88,101,115,126,150,182,183,184,185,187,188,189,190,191,192,195,207},{4,26,49,60,74,89,102,127,173,182,183,184,185,186,188,189,190,191,192,196,208},{17,36,61,90,103,116,128,164,174,182,183,184,185,186,187,189,190,191,192,197,209},{8,30,39,64,79,132,155,167,178,182,183,184,185,186,187,188,190,191,192,212},{9,19,31,40,53,65,80,179,182,183,184,185,186,187,188,189,191,192,201,213},{20,32,66,81,93,107,120,142,156,182,183,184,185,186,187,188,189,190,192,202,214},{10,33,41,54,67,82,94,108,133,143,157,180,182,183,184,185,186,187,188,189,190,191,215},{12,22,34,43,56,84,95,110,121,135,145,169,182,194,195,196,197,198,199,200,201,202},{2,24,58,71,99,114,124,162,172,185,193,195,196,197,198,199,200,201,202,205},{3,16,25,35,48,73,88,101,115,126,150,186,193,194,196,197,198,199,200,201,202,207},{4,26,49,60,74,89,102,127,173,187,193,194,195,197,198,199,200,201,202,208},{17,36,61,90,103,116,128,164,174,188,193,194,195,196,198,199,200,201,202,209},{27,75,104,117,129,139,151,165,175,193,194,195,196,197,199,200,201,202},{5,28,37,50,62,76,91,118,140,152,166,176,193,194,195,196,197,198,200,201,202,210},{7,52,63,78,92,106,131,154,193,194,195,196,197,198,199,201,202},{9,19,31,40,53,65,80,179,190,193,194,195,196,197,198,199,200,202,213},{20,32,66,81,93,107,120,142,156,191,193,194,195,196,197,198,199,200,201,214},{0,13,44,69,85,96,111,122,136,146,159,183,204,205,206,207,208,209,210,211,212,213,214,215,216},{14,45,70,86,97,112,137,147,160,170,203,205,206,207,208,209,210,211,212,213,214,215,216},{2,24,58,71,99,114,124,162,172,185,194,203,204,206,207,208,209,210,211,212,213,214,215,216},{15,47,59,72,100,125,138,149,163,203,204,205,207,208,209,210,211,212,213,214,215,216},{3,16,25,35,48,73,88,101,115,126,150,186,195,203,204,205,206,208,209,210,211,212,213,214,215,216},{4,26,49,60,74,89,102,127,173,187,196,203,204,205,206,207,209,210,211,212,213,214,215,216},{17,36,61,90,103,116,128,164,174,188,197,203,204,205,206,207,208,210,211,212,213,214,215,216},{5,28,37,50,62,76,91,118,140,152,166,176,199,203,204,205,206,207,208,209,211,212,213,214,215,216},{6,18,29,38,51,77,105,119,130,141,153,177,203,204,205,206,207,208,209,210,212,213,214,215,216},{8,30,39,64,79,132,155,167,178,189,203,204,205,206,207,208,209,210,211,213,214,215,216},{9,19,31,40,53,65,80,179,190,201,203,204,205,206,207,208,209,210,211,212,214,215,216},{20,32,66,81,93,107,120,142,156,191,202,203,204,205,206,207,208,209,210,211,212,213,215,216},{10,33,41,54,67,82,94,108,133,143,157,180,192,203,204,205,206,207,208,209,210,211,212,213,214,216},{11,21,42,55,68,83,109,134,144,158,168,181,203,204,205,206,207,208,209,210,211,212,213,214,215}];
weights=[331,313,317,568,250,620,563,266,645,477,597,578,368,444,438,493,291,316,542,506,429,412,626,423,332,685,383,206,544,240,397,533,391,237,300,643,277,306,237,332,546,613,689,229,266,515,479,644,684,683,395,654,344,359,663,332,694,474,277,554,519,516,522,429,257,688,451,216,223,219,302,529,208,378,278,476,567,425,333,550,306,381,391,485,361,351,324,325,532,556,468,390,237,527,600,370,324,354,635,265,532,284,612,476,289,521,636,519,472,221,615,466,566,702,618,480,338,401,522,215,691,386,312,234,253,553,232,225,261,308,445,354,386,275,299,626,607,460,450,378,543,280,514,268,356,567,622,486,658,410,237,211,270,203,301,301,273,557,201,293,207,233,340,477,510,392,630,318,326,452,520,384,263,312,271,363,564,373,610,329,427,448,363,344,219,299,688,694,557,268,661,266,210,645,445,277,458,390,500,320,447,487,687,503,247,356,594,391,383,689,588,562,696,351,640,333,527];
